2 18 50 58 
39 75 3 48 
92 42 98 16 6 26 70 
28 12 40 53 100 
95 88 49 17 
72 76 79 34 24 
5 44 38 43 91 93 
27 69 99 94 68 
63 30 51 66 1 
31 41 37 60 89 
36 47 19 35 
45 83 87 57 97 
59 52 22 56 4 
65 71 9 20 32 77 
62 7 8 46 80 
14 15 86 96 13 
33 29 78 54 25 
81 10 
21 73 74 
82 85 
23 67 55 
11 90 
61 84 
64 

